networks/zoo_7_3/zoo_7_3-lower.sol
<?xml version = "1.0" encoding="UTF-8" standalone="yes"?>
<CPLEXSolution version="1.2">
 <header
   problemName="networks/zoo_7_3/zoo_7_3-lower.lp"
   solutionName="incumbent"
   solutionIndex="-1"
   objectiveValue="2"
   solutionTypeValue="3"
   solutionTypeString="primal"
   solutionStatusValue="101"
   solutionStatusString="integer optimal solution"
   solutionMethodString="mip"
   primalFeasible="1"
   dualFeasible="1"
   MIPNodes="0"
   MIPIterations="0"
   writeLevel="3"/>
 <quality
   epInt="1.0000000000000001e-05"
   epRHS="9.9999999999999995e-07"
   maxIntInfeas="0"
   maxPrimalInfeas="0"
   maxX="1"
   maxSlack="1"/>
 <variables>
  <variable name="Y(1,3)" index="2" value="1"/>
  <variable name="Y(2,1)" index="5" value="1"/>
  <variable name="X(1,3,1)" index="15" value="1"/>
  <variable name="X(1,5,2)" index="19" value="1"/>
  <variable name="X(2,1,2)" index="22" value="1"/>
  <variable name="X(2,3,3)" index="26" value="1"/>
  <variable name="X(3,7,1)" index="27" value="1"/>
 </variables>
</CPLEXSolution>
